*HEADING
QF_solver HEX8 same-mesh CalculiX C3D8 correlation
*NODE
1,0,0,0
2,2.5,0,0
3,5,0,0
4,7.5,0,0
5,10,0,0
6,0,0.5,0
7,2.5,0.5,0
8,5,0.5,0
9,7.5,0.5,0
10,10,0.5,0
11,0,1,0
12,2.5,1,0
13,5,1,0
14,7.5,1,0
15,10,1,0
16,0,0,0.5
17,2.5,0,0.5
18,5,0,0.5
19,7.5,0,0.5
20,10,0,0.5
21,0,0.5,0.5
22,2.5,0.5,0.5
23,5,0.5,0.5
24,7.5,0.5,0.5
25,10,0.5,0.5
26,0,1,0.5
27,2.5,1,0.5
28,5,1,0.5
29,7.5,1,0.5
30,10,1,0.5
31,0,0,1
32,2.5,0,1
33,5,0,1
34,7.5,0,1
35,10,0,1
36,0,0.5,1
37,2.5,0.5,1
38,5,0.5,1
39,7.5,0.5,1
40,10,0.5,1
41,0,1,1
42,2.5,1,1
43,5,1,1
44,7.5,1,1
45,10,1,1
*ELEMENT,TYPE=C3D8,ELSET=EALL
1,1,2,7,6,16,17,22,21
2,2,3,8,7,17,18,23,22
3,3,4,9,8,18,19,24,23
4,4,5,10,9,19,20,25,24
5,6,7,12,11,21,22,27,26
6,7,8,13,12,22,23,28,27
7,8,9,14,13,23,24,29,28
8,9,10,15,14,24,25,30,29
9,16,17,22,21,31,32,37,36
10,17,18,23,22,32,33,38,37
11,18,19,24,23,33,34,39,38
12,19,20,25,24,34,35,40,39
13,21,22,27,26,36,37,42,41
14,22,23,28,27,37,38,43,42
15,23,24,29,28,38,39,44,43
16,24,25,30,29,39,40,45,44
*SOLID SECTION,ELSET=EALL,MATERIAL=MAT
*MATERIAL,NAME=MAT
*ELASTIC
210000000000,0.3
*BOUNDARY
1,1,1,0.
1,2,2,0.
1,3,3,0.
6,1,1,0.
6,2,2,0.
6,3,3,0.
11,1,1,0.
11,2,2,0.
11,3,3,0.
16,1,1,0.
16,2,2,0.
16,3,3,0.
21,1,1,0.
21,2,2,0.
21,3,3,0.
26,1,1,0.
26,2,2,0.
26,3,3,0.
31,1,1,0.
31,2,2,0.
31,3,3,0.
36,1,1,0.
36,2,2,0.
36,3,3,0.
41,1,1,0.
41,2,2,0.
41,3,3,0.
*STEP
*STATIC
0.1,1.0,1.E-8,0.1
*CLOAD
5,3,-111111.111111
10,3,-111111.111111
15,3,-111111.111111
20,3,-111111.111111
25,3,-111111.111111
30,3,-111111.111111
35,3,-111111.111111
40,3,-111111.111111
45,3,-111111.111111
*NODE FILE,FREQUENCY=1
U
*END STEP
