*HEADING
QF contact block pre-contact probe
*NODE
1,0.1,-0.5,-0.5
2,0.1,-0.5,-0.25
3,0.1,-0.5,0
4,0.1,-0.5,0.25
5,0.1,-0.5,0.5
6,0.1,-0.25,-0.5
7,0.1,-0.25,-0.25
8,0.1,-0.25,0
9,0.1,-0.25,0.25
10,0.1,-0.25,0.5
11,0.1,0,-0.5
12,0.1,0,-0.25
13,0.1,0,0
14,0.1,0,0.25
15,0.1,0,0.5
16,0.1,0.25,-0.5
17,0.1,0.25,-0.25
18,0.1,0.25,0
19,0.1,0.25,0.25
20,0.1,0.25,0.5
21,0.1,0.5,-0.5
22,0.1,0.5,-0.25
23,0.1,0.5,0
24,0.1,0.5,0.25
25,0.1,0.5,0.5
26,0.225,-0.5,-0.5
27,0.225,-0.5,-0.25
28,0.225,-0.5,0
29,0.225,-0.5,0.25
30,0.225,-0.5,0.5
31,0.225,-0.25,-0.5
32,0.225,-0.25,-0.25
33,0.225,-0.25,0
34,0.225,-0.25,0.25
35,0.225,-0.25,0.5
36,0.225,0,-0.5
37,0.225,0,-0.25
38,0.225,0,0
39,0.225,0,0.25
40,0.225,0,0.5
41,0.225,0.25,-0.5
42,0.225,0.25,-0.25
43,0.225,0.25,0
44,0.225,0.25,0.25
45,0.225,0.25,0.5
46,0.225,0.5,-0.5
47,0.225,0.5,-0.25
48,0.225,0.5,0
49,0.225,0.5,0.25
50,0.225,0.5,0.5
51,0.35,-0.5,-0.5
52,0.35,-0.5,-0.25
53,0.35,-0.5,0
54,0.35,-0.5,0.25
55,0.35,-0.5,0.5
56,0.35,-0.25,-0.5
57,0.35,-0.25,-0.25
58,0.35,-0.25,0
59,0.35,-0.25,0.25
60,0.35,-0.25,0.5
61,0.35,0,-0.5
62,0.35,0,-0.25
63,0.35,0,0
64,0.35,0,0.25
65,0.35,0,0.5
66,0.35,0.25,-0.5
67,0.35,0.25,-0.25
68,0.35,0.25,0
69,0.35,0.25,0.25
70,0.35,0.25,0.5
71,0.35,0.5,-0.5
72,0.35,0.5,-0.25
73,0.35,0.5,0
74,0.35,0.5,0.25
75,0.35,0.5,0.5
76,0.475,-0.5,-0.5
77,0.475,-0.5,-0.25
78,0.475,-0.5,0
79,0.475,-0.5,0.25
80,0.475,-0.5,0.5
81,0.475,-0.25,-0.5
82,0.475,-0.25,-0.25
83,0.475,-0.25,0
84,0.475,-0.25,0.25
85,0.475,-0.25,0.5
86,0.475,0,-0.5
87,0.475,0,-0.25
88,0.475,0,0
89,0.475,0,0.25
90,0.475,0,0.5
91,0.475,0.25,-0.5
92,0.475,0.25,-0.25
93,0.475,0.25,0
94,0.475,0.25,0.25
95,0.475,0.25,0.5
96,0.475,0.5,-0.5
97,0.475,0.5,-0.25
98,0.475,0.5,0
99,0.475,0.5,0.25
100,0.475,0.5,0.5
101,0.6,-0.5,-0.5
102,0.6,-0.5,-0.25
103,0.6,-0.5,0
104,0.6,-0.5,0.25
105,0.6,-0.5,0.5
106,0.6,-0.25,-0.5
107,0.6,-0.25,-0.25
108,0.6,-0.25,0
109,0.6,-0.25,0.25
110,0.6,-0.25,0.5
111,0.6,0,-0.5
112,0.6,0,-0.25
113,0.6,0,0
114,0.6,0,0.25
115,0.6,0,0.5
116,0.6,0.25,-0.5
117,0.6,0.25,-0.25
118,0.6,0.25,0
119,0.6,0.25,0.25
120,0.6,0.25,0.5
121,0.6,0.5,-0.5
122,0.6,0.5,-0.25
123,0.6,0.5,0
124,0.6,0.5,0.25
125,0.6,0.5,0.5
126,0.725,-0.5,-0.5
127,0.725,-0.5,-0.25
128,0.725,-0.5,0
129,0.725,-0.5,0.25
130,0.725,-0.5,0.5
131,0.725,-0.25,-0.5
132,0.725,-0.25,-0.25
133,0.725,-0.25,0
134,0.725,-0.25,0.25
135,0.725,-0.25,0.5
136,0.725,0,-0.5
137,0.725,0,-0.25
138,0.725,0,0
139,0.725,0,0.25
140,0.725,0,0.5
141,0.725,0.25,-0.5
142,0.725,0.25,-0.25
143,0.725,0.25,0
144,0.725,0.25,0.25
145,0.725,0.25,0.5
146,0.725,0.5,-0.5
147,0.725,0.5,-0.25
148,0.725,0.5,0
149,0.725,0.5,0.25
150,0.725,0.5,0.5
151,0.85,-0.5,-0.5
152,0.85,-0.5,-0.25
153,0.85,-0.5,0
154,0.85,-0.5,0.25
155,0.85,-0.5,0.5
156,0.85,-0.25,-0.5
157,0.85,-0.25,-0.25
158,0.85,-0.25,0
159,0.85,-0.25,0.25
160,0.85,-0.25,0.5
161,0.85,0,-0.5
162,0.85,0,-0.25
163,0.85,0,0
164,0.85,0,0.25
165,0.85,0,0.5
166,0.85,0.25,-0.5
167,0.85,0.25,-0.25
168,0.85,0.25,0
169,0.85,0.25,0.25
170,0.85,0.25,0.5
171,0.85,0.5,-0.5
172,0.85,0.5,-0.25
173,0.85,0.5,0
174,0.85,0.5,0.25
175,0.85,0.5,0.5
176,0.975,-0.5,-0.5
177,0.975,-0.5,-0.25
178,0.975,-0.5,0
179,0.975,-0.5,0.25
180,0.975,-0.5,0.5
181,0.975,-0.25,-0.5
182,0.975,-0.25,-0.25
183,0.975,-0.25,0
184,0.975,-0.25,0.25
185,0.975,-0.25,0.5
186,0.975,0,-0.5
187,0.975,0,-0.25
188,0.975,0,0
189,0.975,0,0.25
190,0.975,0,0.5
191,0.975,0.25,-0.5
192,0.975,0.25,-0.25
193,0.975,0.25,0
194,0.975,0.25,0.25
195,0.975,0.25,0.5
196,0.975,0.5,-0.5
197,0.975,0.5,-0.25
198,0.975,0.5,0
199,0.975,0.5,0.25
200,0.975,0.5,0.5
201,1.1,-0.5,-0.5
202,1.1,-0.5,-0.25
203,1.1,-0.5,0
204,1.1,-0.5,0.25
205,1.1,-0.5,0.5
206,1.1,-0.25,-0.5
207,1.1,-0.25,-0.25
208,1.1,-0.25,0
209,1.1,-0.25,0.25
210,1.1,-0.25,0.5
211,1.1,0,-0.5
212,1.1,0,-0.25
213,1.1,0,0
214,1.1,0,0.25
215,1.1,0,0.5
216,1.1,0.25,-0.5
217,1.1,0.25,-0.25
218,1.1,0.25,0
219,1.1,0.25,0.25
220,1.1,0.25,0.5
221,1.1,0.5,-0.5
222,1.1,0.5,-0.25
223,1.1,0.5,0
224,1.1,0.5,0.25
225,1.1,0.5,0.5
*ELEMENT,TYPE=C3D4,ELSET=EALL
1,1,26,31,32
2,1,31,6,32
3,1,6,7,32
4,1,7,2,32
5,1,2,27,32
6,1,27,26,32
7,2,27,32,33
8,2,32,7,33
9,2,7,8,33
10,2,8,3,33
11,2,3,28,33
12,2,28,27,33
13,3,28,33,34
14,3,33,8,34
15,3,8,9,34
16,3,9,4,34
17,3,4,29,34
18,3,29,28,34
19,4,29,34,35
20,4,34,9,35
21,4,9,10,35
22,4,10,5,35
23,4,5,30,35
24,4,30,29,35
25,6,31,36,37
26,6,36,11,37
27,6,11,12,37
28,6,12,7,37
29,6,7,32,37
30,6,32,31,37
31,7,32,37,38
32,7,37,12,38
33,7,12,13,38
34,7,13,8,38
35,7,8,33,38
36,7,33,32,38
37,8,33,38,39
38,8,38,13,39
39,8,13,14,39
40,8,14,9,39
41,8,9,34,39
42,8,34,33,39
43,9,34,39,40
44,9,39,14,40
45,9,14,15,40
46,9,15,10,40
47,9,10,35,40
48,9,35,34,40
49,11,36,41,42
50,11,41,16,42
51,11,16,17,42
52,11,17,12,42
53,11,12,37,42
54,11,37,36,42
55,12,37,42,43
56,12,42,17,43
57,12,17,18,43
58,12,18,13,43
59,12,13,38,43
60,12,38,37,43
61,13,38,43,44
62,13,43,18,44
63,13,18,19,44
64,13,19,14,44
65,13,14,39,44
66,13,39,38,44
67,14,39,44,45
68,14,44,19,45
69,14,19,20,45
70,14,20,15,45
71,14,15,40,45
72,14,40,39,45
73,16,41,46,47
74,16,46,21,47
75,16,21,22,47
76,16,22,17,47
77,16,17,42,47
78,16,42,41,47
79,17,42,47,48
80,17,47,22,48
81,17,22,23,48
82,17,23,18,48
83,17,18,43,48
84,17,43,42,48
85,18,43,48,49
86,18,48,23,49
87,18,23,24,49
88,18,24,19,49
89,18,19,44,49
90,18,44,43,49
91,19,44,49,50
92,19,49,24,50
93,19,24,25,50
94,19,25,20,50
95,19,20,45,50
96,19,45,44,50
97,26,51,56,57
98,26,56,31,57
99,26,31,32,57
100,26,32,27,57
101,26,27,52,57
102,26,52,51,57
103,27,52,57,58
104,27,57,32,58
105,27,32,33,58
106,27,33,28,58
107,27,28,53,58
108,27,53,52,58
109,28,53,58,59
110,28,58,33,59
111,28,33,34,59
112,28,34,29,59
113,28,29,54,59
114,28,54,53,59
115,29,54,59,60
116,29,59,34,60
117,29,34,35,60
118,29,35,30,60
119,29,30,55,60
120,29,55,54,60
121,31,56,61,62
122,31,61,36,62
123,31,36,37,62
124,31,37,32,62
125,31,32,57,62
126,31,57,56,62
127,32,57,62,63
128,32,62,37,63
129,32,37,38,63
130,32,38,33,63
131,32,33,58,63
132,32,58,57,63
133,33,58,63,64
134,33,63,38,64
135,33,38,39,64
136,33,39,34,64
137,33,34,59,64
138,33,59,58,64
139,34,59,64,65
140,34,64,39,65
141,34,39,40,65
142,34,40,35,65
143,34,35,60,65
144,34,60,59,65
145,36,61,66,67
146,36,66,41,67
147,36,41,42,67
148,36,42,37,67
149,36,37,62,67
150,36,62,61,67
151,37,62,67,68
152,37,67,42,68
153,37,42,43,68
154,37,43,38,68
155,37,38,63,68
156,37,63,62,68
157,38,63,68,69
158,38,68,43,69
159,38,43,44,69
160,38,44,39,69
161,38,39,64,69
162,38,64,63,69
163,39,64,69,70
164,39,69,44,70
165,39,44,45,70
166,39,45,40,70
167,39,40,65,70
168,39,65,64,70
169,41,66,71,72
170,41,71,46,72
171,41,46,47,72
172,41,47,42,72
173,41,42,67,72
174,41,67,66,72
175,42,67,72,73
176,42,72,47,73
177,42,47,48,73
178,42,48,43,73
179,42,43,68,73
180,42,68,67,73
181,43,68,73,74
182,43,73,48,74
183,43,48,49,74
184,43,49,44,74
185,43,44,69,74
186,43,69,68,74
187,44,69,74,75
188,44,74,49,75
189,44,49,50,75
190,44,50,45,75
191,44,45,70,75
192,44,70,69,75
193,51,76,81,82
194,51,81,56,82
195,51,56,57,82
196,51,57,52,82
197,51,52,77,82
198,51,77,76,82
199,52,77,82,83
200,52,82,57,83
201,52,57,58,83
202,52,58,53,83
203,52,53,78,83
204,52,78,77,83
205,53,78,83,84
206,53,83,58,84
207,53,58,59,84
208,53,59,54,84
209,53,54,79,84
210,53,79,78,84
211,54,79,84,85
212,54,84,59,85
213,54,59,60,85
214,54,60,55,85
215,54,55,80,85
216,54,80,79,85
217,56,81,86,87
218,56,86,61,87
219,56,61,62,87
220,56,62,57,87
221,56,57,82,87
222,56,82,81,87
223,57,82,87,88
224,57,87,62,88
225,57,62,63,88
226,57,63,58,88
227,57,58,83,88
228,57,83,82,88
229,58,83,88,89
230,58,88,63,89
231,58,63,64,89
232,58,64,59,89
233,58,59,84,89
234,58,84,83,89
235,59,84,89,90
236,59,89,64,90
237,59,64,65,90
238,59,65,60,90
239,59,60,85,90
240,59,85,84,90
241,61,86,91,92
242,61,91,66,92
243,61,66,67,92
244,61,67,62,92
245,61,62,87,92
246,61,87,86,92
247,62,87,92,93
248,62,92,67,93
249,62,67,68,93
250,62,68,63,93
251,62,63,88,93
252,62,88,87,93
253,63,88,93,94
254,63,93,68,94
255,63,68,69,94
256,63,69,64,94
257,63,64,89,94
258,63,89,88,94
259,64,89,94,95
260,64,94,69,95
261,64,69,70,95
262,64,70,65,95
263,64,65,90,95
264,64,90,89,95
265,66,91,96,97
266,66,96,71,97
267,66,71,72,97
268,66,72,67,97
269,66,67,92,97
270,66,92,91,97
271,67,92,97,98
272,67,97,72,98
273,67,72,73,98
274,67,73,68,98
275,67,68,93,98
276,67,93,92,98
277,68,93,98,99
278,68,98,73,99
279,68,73,74,99
280,68,74,69,99
281,68,69,94,99
282,68,94,93,99
283,69,94,99,100
284,69,99,74,100
285,69,74,75,100
286,69,75,70,100
287,69,70,95,100
288,69,95,94,100
289,76,101,106,107
290,76,106,81,107
291,76,81,82,107
292,76,82,77,107
293,76,77,102,107
294,76,102,101,107
295,77,102,107,108
296,77,107,82,108
297,77,82,83,108
298,77,83,78,108
299,77,78,103,108
300,77,103,102,108
301,78,103,108,109
302,78,108,83,109
303,78,83,84,109
304,78,84,79,109
305,78,79,104,109
306,78,104,103,109
307,79,104,109,110
308,79,109,84,110
309,79,84,85,110
310,79,85,80,110
311,79,80,105,110
312,79,105,104,110
313,81,106,111,112
314,81,111,86,112
315,81,86,87,112
316,81,87,82,112
317,81,82,107,112
318,81,107,106,112
319,82,107,112,113
320,82,112,87,113
321,82,87,88,113
322,82,88,83,113
323,82,83,108,113
324,82,108,107,113
325,83,108,113,114
326,83,113,88,114
327,83,88,89,114
328,83,89,84,114
329,83,84,109,114
330,83,109,108,114
331,84,109,114,115
332,84,114,89,115
333,84,89,90,115
334,84,90,85,115
335,84,85,110,115
336,84,110,109,115
337,86,111,116,117
338,86,116,91,117
339,86,91,92,117
340,86,92,87,117
341,86,87,112,117
342,86,112,111,117
343,87,112,117,118
344,87,117,92,118
345,87,92,93,118
346,87,93,88,118
347,87,88,113,118
348,87,113,112,118
349,88,113,118,119
350,88,118,93,119
351,88,93,94,119
352,88,94,89,119
353,88,89,114,119
354,88,114,113,119
355,89,114,119,120
356,89,119,94,120
357,89,94,95,120
358,89,95,90,120
359,89,90,115,120
360,89,115,114,120
361,91,116,121,122
362,91,121,96,122
363,91,96,97,122
364,91,97,92,122
365,91,92,117,122
366,91,117,116,122
367,92,117,122,123
368,92,122,97,123
369,92,97,98,123
370,92,98,93,123
371,92,93,118,123
372,92,118,117,123
373,93,118,123,124
374,93,123,98,124
375,93,98,99,124
376,93,99,94,124
377,93,94,119,124
378,93,119,118,124
379,94,119,124,125
380,94,124,99,125
381,94,99,100,125
382,94,100,95,125
383,94,95,120,125
384,94,120,119,125
385,101,126,131,132
386,101,131,106,132
387,101,106,107,132
388,101,107,102,132
389,101,102,127,132
390,101,127,126,132
391,102,127,132,133
392,102,132,107,133
393,102,107,108,133
394,102,108,103,133
395,102,103,128,133
396,102,128,127,133
397,103,128,133,134
398,103,133,108,134
399,103,108,109,134
400,103,109,104,134
401,103,104,129,134
402,103,129,128,134
403,104,129,134,135
404,104,134,109,135
405,104,109,110,135
406,104,110,105,135
407,104,105,130,135
408,104,130,129,135
409,106,131,136,137
410,106,136,111,137
411,106,111,112,137
412,106,112,107,137
413,106,107,132,137
414,106,132,131,137
415,107,132,137,138
416,107,137,112,138
417,107,112,113,138
418,107,113,108,138
419,107,108,133,138
420,107,133,132,138
421,108,133,138,139
422,108,138,113,139
423,108,113,114,139
424,108,114,109,139
425,108,109,134,139
426,108,134,133,139
427,109,134,139,140
428,109,139,114,140
429,109,114,115,140
430,109,115,110,140
431,109,110,135,140
432,109,135,134,140
433,111,136,141,142
434,111,141,116,142
435,111,116,117,142
436,111,117,112,142
437,111,112,137,142
438,111,137,136,142
439,112,137,142,143
440,112,142,117,143
441,112,117,118,143
442,112,118,113,143
443,112,113,138,143
444,112,138,137,143
445,113,138,143,144
446,113,143,118,144
447,113,118,119,144
448,113,119,114,144
449,113,114,139,144
450,113,139,138,144
451,114,139,144,145
452,114,144,119,145
453,114,119,120,145
454,114,120,115,145
455,114,115,140,145
456,114,140,139,145
457,116,141,146,147
458,116,146,121,147
459,116,121,122,147
460,116,122,117,147
461,116,117,142,147
462,116,142,141,147
463,117,142,147,148
464,117,147,122,148
465,117,122,123,148
466,117,123,118,148
467,117,118,143,148
468,117,143,142,148
469,118,143,148,149
470,118,148,123,149
471,118,123,124,149
472,118,124,119,149
473,118,119,144,149
474,118,144,143,149
475,119,144,149,150
476,119,149,124,150
477,119,124,125,150
478,119,125,120,150
479,119,120,145,150
480,119,145,144,150
481,126,151,156,157
482,126,156,131,157
483,126,131,132,157
484,126,132,127,157
485,126,127,152,157
486,126,152,151,157
487,127,152,157,158
488,127,157,132,158
489,127,132,133,158
490,127,133,128,158
491,127,128,153,158
492,127,153,152,158
493,128,153,158,159
494,128,158,133,159
495,128,133,134,159
496,128,134,129,159
497,128,129,154,159
498,128,154,153,159
499,129,154,159,160
500,129,159,134,160
501,129,134,135,160
502,129,135,130,160
503,129,130,155,160
504,129,155,154,160
505,131,156,161,162
506,131,161,136,162
507,131,136,137,162
508,131,137,132,162
509,131,132,157,162
510,131,157,156,162
511,132,157,162,163
512,132,162,137,163
513,132,137,138,163
514,132,138,133,163
515,132,133,158,163
516,132,158,157,163
517,133,158,163,164
518,133,163,138,164
519,133,138,139,164
520,133,139,134,164
521,133,134,159,164
522,133,159,158,164
523,134,159,164,165
524,134,164,139,165
525,134,139,140,165
526,134,140,135,165
527,134,135,160,165
528,134,160,159,165
529,136,161,166,167
530,136,166,141,167
531,136,141,142,167
532,136,142,137,167
533,136,137,162,167
534,136,162,161,167
535,137,162,167,168
536,137,167,142,168
537,137,142,143,168
538,137,143,138,168
539,137,138,163,168
540,137,163,162,168
541,138,163,168,169
542,138,168,143,169
543,138,143,144,169
544,138,144,139,169
545,138,139,164,169
546,138,164,163,169
547,139,164,169,170
548,139,169,144,170
549,139,144,145,170
550,139,145,140,170
551,139,140,165,170
552,139,165,164,170
553,141,166,171,172
554,141,171,146,172
555,141,146,147,172
556,141,147,142,172
557,141,142,167,172
558,141,167,166,172
559,142,167,172,173
560,142,172,147,173
561,142,147,148,173
562,142,148,143,173
563,142,143,168,173
564,142,168,167,173
565,143,168,173,174
566,143,173,148,174
567,143,148,149,174
568,143,149,144,174
569,143,144,169,174
570,143,169,168,174
571,144,169,174,175
572,144,174,149,175
573,144,149,150,175
574,144,150,145,175
575,144,145,170,175
576,144,170,169,175
577,151,176,181,182
578,151,181,156,182
579,151,156,157,182
580,151,157,152,182
581,151,152,177,182
582,151,177,176,182
583,152,177,182,183
584,152,182,157,183
585,152,157,158,183
586,152,158,153,183
587,152,153,178,183
588,152,178,177,183
589,153,178,183,184
590,153,183,158,184
591,153,158,159,184
592,153,159,154,184
593,153,154,179,184
594,153,179,178,184
595,154,179,184,185
596,154,184,159,185
597,154,159,160,185
598,154,160,155,185
599,154,155,180,185
600,154,180,179,185
601,156,181,186,187
602,156,186,161,187
603,156,161,162,187
604,156,162,157,187
605,156,157,182,187
606,156,182,181,187
607,157,182,187,188
608,157,187,162,188
609,157,162,163,188
610,157,163,158,188
611,157,158,183,188
612,157,183,182,188
613,158,183,188,189
614,158,188,163,189
615,158,163,164,189
616,158,164,159,189
617,158,159,184,189
618,158,184,183,189
619,159,184,189,190
620,159,189,164,190
621,159,164,165,190
622,159,165,160,190
623,159,160,185,190
624,159,185,184,190
625,161,186,191,192
626,161,191,166,192
627,161,166,167,192
628,161,167,162,192
629,161,162,187,192
630,161,187,186,192
631,162,187,192,193
632,162,192,167,193
633,162,167,168,193
634,162,168,163,193
635,162,163,188,193
636,162,188,187,193
637,163,188,193,194
638,163,193,168,194
639,163,168,169,194
640,163,169,164,194
641,163,164,189,194
642,163,189,188,194
643,164,189,194,195
644,164,194,169,195
645,164,169,170,195
646,164,170,165,195
647,164,165,190,195
648,164,190,189,195
649,166,191,196,197
650,166,196,171,197
651,166,171,172,197
652,166,172,167,197
653,166,167,192,197
654,166,192,191,197
655,167,192,197,198
656,167,197,172,198
657,167,172,173,198
658,167,173,168,198
659,167,168,193,198
660,167,193,192,198
661,168,193,198,199
662,168,198,173,199
663,168,173,174,199
664,168,174,169,199
665,168,169,194,199
666,168,194,193,199
667,169,194,199,200
668,169,199,174,200
669,169,174,175,200
670,169,175,170,200
671,169,170,195,200
672,169,195,194,200
673,176,201,206,207
674,176,206,181,207
675,176,181,182,207
676,176,182,177,207
677,176,177,202,207
678,176,202,201,207
679,177,202,207,208
680,177,207,182,208
681,177,182,183,208
682,177,183,178,208
683,177,178,203,208
684,177,203,202,208
685,178,203,208,209
686,178,208,183,209
687,178,183,184,209
688,178,184,179,209
689,178,179,204,209
690,178,204,203,209
691,179,204,209,210
692,179,209,184,210
693,179,184,185,210
694,179,185,180,210
695,179,180,205,210
696,179,205,204,210
697,181,206,211,212
698,181,211,186,212
699,181,186,187,212
700,181,187,182,212
701,181,182,207,212
702,181,207,206,212
703,182,207,212,213
704,182,212,187,213
705,182,187,188,213
706,182,188,183,213
707,182,183,208,213
708,182,208,207,213
709,183,208,213,214
710,183,213,188,214
711,183,188,189,214
712,183,189,184,214
713,183,184,209,214
714,183,209,208,214
715,184,209,214,215
716,184,214,189,215
717,184,189,190,215
718,184,190,185,215
719,184,185,210,215
720,184,210,209,215
721,186,211,216,217
722,186,216,191,217
723,186,191,192,217
724,186,192,187,217
725,186,187,212,217
726,186,212,211,217
727,187,212,217,218
728,187,217,192,218
729,187,192,193,218
730,187,193,188,218
731,187,188,213,218
732,187,213,212,218
733,188,213,218,219
734,188,218,193,219
735,188,193,194,219
736,188,194,189,219
737,188,189,214,219
738,188,214,213,219
739,189,214,219,220
740,189,219,194,220
741,189,194,195,220
742,189,195,190,220
743,189,190,215,220
744,189,215,214,220
745,191,216,221,222
746,191,221,196,222
747,191,196,197,222
748,191,197,192,222
749,191,192,217,222
750,191,217,216,222
751,192,217,222,223
752,192,222,197,223
753,192,197,198,223
754,192,198,193,223
755,192,193,218,223
756,192,218,217,223
757,193,218,223,224
758,193,223,198,224
759,193,198,199,224
760,193,199,194,224
761,193,194,219,224
762,193,219,218,224
763,194,219,224,225
764,194,224,199,225
765,194,199,200,225
766,194,200,195,225
767,194,195,220,225
768,194,220,219,225
*NSET,NSET=FIXED
201,202,203,204,205,206,207,208,209,210,211,212,213,214,215,216
217,218,219,220,221,222,223,224,225
*NSET,NSET=SLAVE_1
7
*NSET,NSET=SLAVE_2
19
*MATERIAL,NAME=ISO
*ELASTIC
10000.,0.3
*SOLID SECTION,ELSET=EALL,MATERIAL=ISO
*BOUNDARY
FIXED,1,3,0.
*STEP
*STATIC
*CLOAD
SLAVE_1,1,-200.
SLAVE_2,1,-200.
*NODE FILE
U
*END STEP
