*HEADING
QF_solver HEX8 same-mesh CalculiX C3D8 correlation
*NODE
1,0,0,0
2,2.5,0,0
3,5,0,0
4,7.5,0,0
5,10,0,0
6,12.5,0,0
7,15,0,0
8,17.5,0,0
9,20,0,0
10,0,0.5,0
11,2.5,0.5,0
12,5,0.5,0
13,7.5,0.5,0
14,10,0.5,0
15,12.5,0.5,0
16,15,0.5,0
17,17.5,0.5,0
18,20,0.5,0
19,0,1,0
20,2.5,1,0
21,5,1,0
22,7.5,1,0
23,10,1,0
24,12.5,1,0
25,15,1,0
26,17.5,1,0
27,20,1,0
28,0,0,0.5
29,2.5,0,0.5
30,5,0,0.5
31,7.5,0,0.5
32,10,0,0.5
33,12.5,0,0.5
34,15,0,0.5
35,17.5,0,0.5
36,20,0,0.5
37,0,0.5,0.5
38,2.5,0.5,0.5
39,5,0.5,0.5
40,7.5,0.5,0.5
41,10,0.5,0.5
42,12.5,0.5,0.5
43,15,0.5,0.5
44,17.5,0.5,0.5
45,20,0.5,0.5
46,0,1,0.5
47,2.5,1,0.5
48,5,1,0.5
49,7.5,1,0.5
50,10,1,0.5
51,12.5,1,0.5
52,15,1,0.5
53,17.5,1,0.5
54,20,1,0.5
55,0,0,1
56,2.5,0,1
57,5,0,1
58,7.5,0,1
59,10,0,1
60,12.5,0,1
61,15,0,1
62,17.5,0,1
63,20,0,1
64,0,0.5,1
65,2.5,0.5,1
66,5,0.5,1
67,7.5,0.5,1
68,10,0.5,1
69,12.5,0.5,1
70,15,0.5,1
71,17.5,0.5,1
72,20,0.5,1
73,0,1,1
74,2.5,1,1
75,5,1,1
76,7.5,1,1
77,10,1,1
78,12.5,1,1
79,15,1,1
80,17.5,1,1
81,20,1,1
*ELEMENT,TYPE=C3D8,ELSET=EALL
1,1,2,11,10,28,29,38,37
2,2,3,12,11,29,30,39,38
3,3,4,13,12,30,31,40,39
4,4,5,14,13,31,32,41,40
5,5,6,15,14,32,33,42,41
6,6,7,16,15,33,34,43,42
7,7,8,17,16,34,35,44,43
8,8,9,18,17,35,36,45,44
9,10,11,20,19,37,38,47,46
10,11,12,21,20,38,39,48,47
11,12,13,22,21,39,40,49,48
12,13,14,23,22,40,41,50,49
13,14,15,24,23,41,42,51,50
14,15,16,25,24,42,43,52,51
15,16,17,26,25,43,44,53,52
16,17,18,27,26,44,45,54,53
17,28,29,38,37,55,56,65,64
18,29,30,39,38,56,57,66,65
19,30,31,40,39,57,58,67,66
20,31,32,41,40,58,59,68,67
21,32,33,42,41,59,60,69,68
22,33,34,43,42,60,61,70,69
23,34,35,44,43,61,62,71,70
24,35,36,45,44,62,63,72,71
25,37,38,47,46,64,65,74,73
26,38,39,48,47,65,66,75,74
27,39,40,49,48,66,67,76,75
28,40,41,50,49,67,68,77,76
29,41,42,51,50,68,69,78,77
30,42,43,52,51,69,70,79,78
31,43,44,53,52,70,71,80,79
32,44,45,54,53,71,72,81,80
*SOLID SECTION,ELSET=EALL,MATERIAL=MAT
*MATERIAL,NAME=MAT
*ELASTIC
210000000000,0.3
*BOUNDARY
1,1,1,0.
1,2,2,0.
1,3,3,0.
10,1,1,0.
10,2,2,0.
10,3,3,0.
19,1,1,0.
19,2,2,0.
19,3,3,0.
28,1,1,0.
28,2,2,0.
28,3,3,0.
37,1,1,0.
37,2,2,0.
37,3,3,0.
46,1,1,0.
46,2,2,0.
46,3,3,0.
55,1,1,0.
55,2,2,0.
55,3,3,0.
64,1,1,0.
64,2,2,0.
64,3,3,0.
73,1,1,0.
73,2,2,0.
73,3,3,0.
*STEP
*STATIC
0.1,1.0,1.E-8,0.1
*CLOAD
9,3,-111111.111111
18,3,-111111.111111
27,3,-111111.111111
36,3,-111111.111111
45,3,-111111.111111
54,3,-111111.111111
63,3,-111111.111111
72,3,-111111.111111
81,3,-111111.111111
*NODE FILE,FREQUENCY=1
U
*END STEP
